# Solution for model count
# Objective value = 10
z#1 1
z#2 0
z#3 0
z#4 0
z#5 0
z#6 0
z#7 1
z#8 1
z#9 1
z#10 0
z#11 0
z#12 0
z#13 0
z#14 1
z#15 0
z#16 1
z#17 1
z#18 0
z#19 0
z#20 1
z#21 0
z#22 1
z#23 0
z#24 1
x#24 3671
x#23 0
x#22 127
x#21 0
x#20 782
x#19 0
x#18 0
x#17 350
x#16 1704
x#15 0
x#14 440
x#13 0
x#12 0
x#11 0
x#10 0
x#9 180
x#8 526
x#7 1364
x#6 0
x#5 0
x#4 0
x#3 0
x#2 0
x#1 856
